gil250_1
0 64 57 214 131 10 42 80 113 103 66 168 175 17 40 24 245 147 201 67 59 162 136 226 132 97 227 20 109 158 60 110 178 92 117 240 98 107 212 45 187 91 88 247 86 149 94 218 184 192 239 156 46 216 180 63 179 161 128 143 174 48 196 111 222 37 243 15 102 38 225 157 82 224 163 0 125 114 170 2 183 150 58 230 26 9 153 13 167 89 248 121 106 189 220 36 65 206 83 217 137 18 191 185 72 186 100 145 115 154 155 108 244 70 99 138 21 79 12 49 90 61 129 221 205 31 71 139 202 231 232 142 234 33 19 207 198 73 0